NAME : LPS-n19-m326
COMMENT : (Lartu-Peter-Santi Plot, instance 6726 out of 39200. 19 customers.)
TYPE : CVRP
DIMENSION : 19
EDGE_WEIGHT_TYPE : EUC_2D
CAPACITY : 117
NODE_COORD_SECTION
 1 66 64
 2 67 26
 3 43 26
 4 58 75
 5 65 29
 6 13 76
 7 31 44
 8 69 38
 9 66 96
 10 18 93
 11 22 31
 12 54 41
 13 95 70
 14 96 84
 15 77 26
 16 12 21
 17 63 37
 18 66 2
 19 13 3
DEMAND_SECTION
1 0
2 36
3 6
4 8
5 33
6 49
7 34
8 50
9 111
10 85
11 85
12 77
13 51
14 26
15 20
16 117
17 97
18 100
19 5
DEPOT_SECTION
 1
 -1
EOF
